CMD:
./solvers/bin/cadical --plain --no-reduce -t 1600 ./data/cnfs//6s184/6s184.23.cnf

c --- [ banner ] -------------------------------------------------------------
c 
c CaDiCaL SAT Solver
c Copyright (c) 2016-2024
c A. Biere, M. Fleury, N. Froleyks, K. Fazekas, F. Pollitt, T. Faller
c JKU Linz, University of Freiburg, TU Wien
c 
c Version 2.1.3 5296d3d2a9bf48c154ab2acb5e44625776d821bf
c g++ (Gentoo 12.3.1_p20230526 p2) 12.3.1 20230526 -Wall -Wextra -O3 -DNDEBUG
c Sat Aug 9 07:26:21 PDT 2025 Linux cedar2.int.cedar.computecanada.ca 5.14.0-362.24.2.el9_3.x86_64 x86_64
c 
c --- [ limit ] --------------------------------------------------------------
c 
c setting time limit to 1600 seconds real time (due to '-t 1600')
c 
c --- [ parsing input ] ------------------------------------------------------
c 
c reading DIMACS file from './data/cnfs//6s184/6s184.23.cnf'
c opening file to read './data/cnfs//6s184/6s184.23.cnf'
c found 'p cnf 368647 1086223' header
c parsed 1086223 clauses in 0.16 seconds process time
c 
c --- [ options ] ------------------------------------------------------------
c 
c   --compact=false                (different from default 'true')
c   --decompose=false              (different from default 'true')
c   --deduplicate=false            (different from default 'true')
c   --elim=false                   (different from default 'true')
c   --probe=false                  (different from default 'true')
c   --reduce=false                 (different from default 'true')
c   --subsume=false                (different from default 'true')
c   --ternary=false                (different from default 'true')
c   --transred=false               (different from default 'true')
c   --vivify=false                 (different from default 'true')
c 
c --- [ solving ] ------------------------------------------------------------
c 
c time measured in process time since initialization
c 
c  seconds   reductions  redundant   irredundant
c          MB    restarts       trail        variables
c           level   conflicts       glue           remaining
c 
c *  0.16 166  0 0   0    0    0  0% 0 1044456 352767 96%
c {  0.18 168  0 0   0    0    0  0% 0 1044456 352767 96%
c i  0.22 169 103 0   8  292  263  8% 4 1044456 352763 96%
c i  0.22 169 102 0   8  295  264  8% 4 1044456 352603 96%
c i  0.22 169 102 0   8  297  265  8% 4 1044456 352598 96%
c i  0.25 170 114 0  11  386  346 11% 4 1044456 352573 96%
c i  0.26 170 119 0  11  403  361 11% 4 1044456 352572 96%
c i  0.26 170 119 0  11  405  362 11% 4 1044456 352571 96%
c i  0.26 170 120 0  11  409  364 11% 4 1044456 352570 96%
c i  0.28 170 130 0  11  487  430 13% 4 1044456 352568 96%
c i  0.28 170 131 0  11  493  435 13% 4 1044456 352539 96%
c i  0.28 170 131 0  11  496  437 13% 4 1044456 352527 96%
c i  0.28 170 132 0  11  500  439 13% 4 1044456 352526 96%
c i  0.28 170 132 0  11  505  441 13% 4 1044456 352503 96%
c i  0.29 170 135 0  11  568  491 13% 4 1044456 352487 96%
c i  0.29 170 135 0  11  577  499 13% 4 1044456 352485 96%
c i  0.29 170 136 0  11  584  504 13% 4 1044456 352481 96%
c i  0.29 170 136 0  11  592  510 13% 4 1044456 352467 96%
c i  0.31 171 139 0  11  659  569 14% 4 1044456 352414 96%
c i  0.31 171 139 0  11  673  582 14% 4 1044456 352412 96%
c 
c  seconds    reductions  redundant   irredundant
c          MB     restarts       trail        variables
c            level   conflicts       glue           remaining
c 
c i  0.33 171 130 0  12  766  667 13% 4 1044456 352410 96%
c i  0.36 171 121 0  18  887  782 13% 4 1044456 352409 96%
c i  0.40 171 115 0  26  980  863 13% 4 1044456 352379 96%
c }  0.41 171 114 0  26 1001  882 13% 4 1044456 352379 96%
c [  0.41 171  0 0  26 1001  882  0% 0 1044456 352379 96%
c O  0.42 171 370 0  26 1002  883 19% 1 1044456 352379 96%
c ]  0.57 174 2168 0  27 3001 2680 49% 5 1044456 352379 96%
c {  0.57 174 114 0  27 3001 2680 13% 4 1044456 352379 96%
c F  0.58 174 118 0  27 3003 2682 13% 4 1044456 352379 96%
c i  0.58 174 118 0  27 3004 2682 13% 4 1044456 352367 96%
c i  0.61 174 120 0  30 3111 2779 13% 4 1044456 352345 96%
c i  0.78 174 120 0  45 3204 2867 14% 4 1044456 352344 96%
c i  0.82 174 114 0  54 3313 2970 15% 4 1044456 352276 96%
c i  0.83 174 114 0  54 3363 3013 15% 4 1044456 352246 96%
c i  0.83 174 114 0  54 3364 3013 15% 4 1044456 352233 96%
c i  0.83 174 114 0  54 3365 3013 15% 4 1044456 352221 96%
c i  0.83 174 114 0  54 3373 3018 15% 4 1044456 352191 96%
c i  0.83 174 114 0  54 3378 3021 15% 4 1044456 352175 96%
c i  0.83 174 114 0  54 3382 3024 15% 4 1044456 352161 96%
c i  0.83 174 113 0  54 3388 3029 15% 4 1044456 352160 96%
c 
c  seconds    reductions  redundant   irredundant
c          MB     restarts       trail        variables
c            level   conflicts       glue           remaining
c 
c i  0.83 174 113 0  54 3392 3032 15% 4 1044456 352159 96%
c i  0.83 174 113 0  54 3393 3032 15% 4 1044456 352107 96%
c i  0.83 174 112 0  54 3398 3036 15% 4 1044456 352095 96%
c i  0.84 174 114 0  54 3414 3051 15% 4 1044456 352094 96%
... skipped 635 lines ...
c i 1008.01 801 79 0 75452 1295128 1201149 25% 10 970161 337921 92%
c i 1034.20 801 79 0 77523 1312021 1216714 25% 10 970161 337920 92%
c i 1053.96 801 79 0 78869 1325531 1229309 25% 10 970161 337907 92%
c # 1054.90 801 79 0 78944 1326090 1229815 25% 10 970161 337907 92%
c i 1069.15 801 79 0 79991 1335229 1238284 25% 10 970161 337860 92%
c i 1114.66 801 78 0 82784 1370130 1270426 26% 10 970161 337851 92%
c 
c   seconds    reductions         redundant    irredundant
c            MB     restarts              trail        variables
c             level       conflicts           glue           remaining
c 
c i 1124.04 801 78 0 83470 1375943 1275830 26% 10 970161 337817 92%
c i 1124.04 801 78 0 83471 1375945 1275831 26% 10 970161 337760 92%
c B 1126.33 801 78 0 83558 1378091 1277809 26% 10 970161 337760 92%
c i 1187.06 801 79 0 87747 1415476 1312500 26% 10 970161 337759 92%
c W 1210.18 825 78 0 89189 1431093 1326942 26% 10 969449 337759 92%
c i 1231.75 825 78 0 90537 1444945 1339767 26% 11 969449 337758 92%
c i 1282.77 825 76 0 93743 1477722 1369967 26% 11 969449 337757 92%
c i 1292.01 825 76 0 94323 1483415 1375257 26% 11 969449 337756 92%
c F 1292.42 825 75 0 94333 1485096 1376729 26% 11 969449 337756 92%
c i 1308.84 825 76 0 95267 1495895 1386623 26% 11 969449 337755 92%
c i 1323.83 825 72 0 96213 1509337 1398103 25% 11 969449 337754 92%
c i 1344.82 825 72 0 97345 1523339 1411045 25% 11 969449 337753 92%
c i 1348.08 825 72 0 97508 1526082 1413516 25% 11 969449 337752 92%
c i 1355.25 825 73 0 97947 1529415 1416611 25% 11 969449 337749 92%
c i 1359.07 825 73 0 98169 1532597 1419596 25% 11 969449 337727 92%
c B 1372.31 825 73 0 99070 1540098 1426560 25% 11 969449 337727 92%
c i 1372.83 825 73 0 99109 1540721 1427125 25% 11 969449 337726 92%
c i 1406.99 825 73 0 100972 1561309 1446285 25% 11 969449 337644 92%
c i 1453.93 825 72 0 103736 1590914 1473851 26% 11 969449 337643 92%
c W 1462.88 851 72 0 104188 1596099 1477415 26% 11 969062 337643 92%
c 
c   seconds    reductions          redundant    irredundant
c            MB     restarts               trail        variables
c             level        conflicts           glue           remaining
c 
c i 1467.08 851 71 0 104382 1598989 1480067 26% 11 969062 337578 92%
c i 1495.79 851 71 0 105950 1615982 1495736 26% 11 969062 337577 92%
c i 1504.18 851 70 0 106486 1620251 1499679 26% 11 969062 337576 92%
c i 1523.39 851 71 0 107656 1630751 1509467 26% 11 969062 337568 92%
c i 1523.45 851 71 0 107656 1630846 1509539 26% 11 969062 337562 92%
c i 1543.52 851 70 0 108782 1642348 1520214 26% 11 969062 337560 92%
c # 1561.56 851 71 0 109872 1653102 1530201 26% 11 969062 337560 92%
c i 1585.34 851 71 0 111048 1668367 1544363 26% 11 969062 337546 92%
c } 1592.46 851 71 0 111395 1673059 1548702 26% 11 969062 337546 92%
c ? 1592.46 851 71 0 111395 1673059 1548702 26% 11 969062 337546 92%
c 
c --- [ result ] -------------------------------------------------------------
c 
c UNKNOWN
c 
c --- [ run-time profiling ] -------------------------------------------------
c 
c process time taken by individual solving procedures
c (percentage relative to process time for solving)
c 
c      1592.30  100.00% search
c      1285.29   80.72% unstable
c       299.85   18.83% stable
c         7.14    0.45% walk
c         0.16    0.01% parse
c         0.02    0.00% lucky
c         0.00    0.00% simplify
c   =================================
c      1592.30   99.99% solve
c 
c last line shows process time for solving
c (percentage relative to total process time)
c 
c --- [ statistics ] ---------------------------------------------------------
c 
c chronological:            647479        38.70 %  of conflicts
c conflicts:               1673059      1050.72    per second
c decisions:              11548640      7252.81    per second
c fixed:                     31101         8.44 %  of all variables
c learned:                 1611543        96.32 %  per conflict
c learned_lits:          188652357       100.00 %  learned literals
c minimized:                     0         0.00 %  learned literals
c shrunken:               26785820        14.20 %  learned literals
c minishrunken:           43624313        23.12 %  learned literals
c otfs:                       4432         0.26 %  of conflict
c propagations:        10836261766         6.81 M  per second
c rephased:                     57     29351.91    interval
c restarts:                 111395        15.02    interval
c stabilizing:                   5        40.76 %  of conflicts
c subsumed:                  57213         2.15 %  of all clauses
c strengthened:               4210         0.16 %  of all clauses
c walked:                       18     92947.72    interval
c 
c seconds are measured in process time for solving
c 
c --- [ resources ] ----------------------------------------------------------
c 
c total process time since initialization:      1592.46    seconds
c total real time since initialization:         1600.00    seconds
c maximum resident set size of process:         1317.30    MB
c 
c --- [ shutting down ] ------------------------------------------------------
c 
c exit 0
